NAME : FITest
COMMENT : Bonn VLSI data set with 131 points
COMMENT : Uni Bonn, Research Institute for Discrete Math
COMMENT : Contributed by Andre Rohe
TYPE : TSP
DIMENSION : 10
EDGE_WEIGHT_TYPE : EUC_2D
NODE_COORD_SECTION
1 0 2
2 0 3
3 1 1
4 1 4
5 2 3
6 2 4
7 3 2
8 3 4
9 4 0
10 4 3
EOF
